proyfinal/src/viki/013/experimentInOfficeAgust.take6.output/b1c6d035-41a8-4547-aac8-9d87ba7270e0.als.dat
{'cnf.clauses': '118081',
 'cnf.totvars': '69608',
 'conflict literals': '744',
 'conflicts': '108',
 'decisions': '8563',
 'memused.mb': '16.41',
 'outcome': 'UNSAT',
 'propagations': '213061',
 'restarts': '2',
 'solver.msecs': 36,
 'task.msecs': 89}
