proyfinal/src/viki/013/experimentInOfficeAgust.take6.output/b1c6d035-41a8-4547-aac8-9d87ba7270e0.als.out
Reading from standard input... Use '--help' for help.
============================[ Problem Statistics ]=============================
|                                                                             |
|  Number of variables:         69608                                         |
|  Number of clauses:          118081                                         |
|  Parse time:                   0.02 s                                       |
|                                                                             |
============================[ Search Statistics ]==============================
| Conflicts |          ORIGINAL         |          LEARNT          | Progress |
|           |    Vars  Clauses Literals |    Limit  Clauses Lit/Cl |          |
===============================================================================
|       100 |   55505    79000   195807 |    28966       97      7 | 20.261 % |
===============================================================================
restarts              : 2
conflicts             : 108            (2978 /sec)
decisions             : 8563           (0.00 % random) (236136 /sec)
propagations          : 213061         (5875438 /sec)
conflict literals     : 744            (6.53 % deleted)
Memory used           : 16.41 MB
CPU time              : 0.036263 s

UNSATISFIABLE
